18 53 23 80 75 74 61 178 125 175 109 97 73 154 33 126 131 5 171 63 94 34 26 8 99 84 56 72 129 143 168 128 57 192 51 189 13 139 88 134 135 3 117 100 66 110 92 105 30 79 119 47 160 71 90 195 91 78 147 101 115 176 136 89 108 162 177 52 106 140 191 142 39 0 149 118 25 148 35 180 41 69 169 155 138 193 122 9 141 1 113 124 179 76 157 181 188 4 164 190 116 194 198 77 165 7 158 49 197 16 32 151 70 37 67 111 103 86 156 58 172 159 186 96 185 14 22 21 153 107 95 38 150 54 174 15 98 31 170 40 44 112 166 132 145 60 199 68 163 104 45 167 28 93 102 184 27 46 11 85 19 161 50 130 43 144 82 20 59 81 173 183 48 83 65 146 55 123 2 187 12 87 152 137 127 196 120 182 42 121 29 133 17 114 36 6 10 62 24 64